3072459
80,197,154,95,165,144,101,27,34,134,123,45,82,39,51,69,193,141,24,106,222,120,211,166,213,38,6,147,145,49,83,196,184,191,185,177,195,126,19,29,114,218,124,13,152,15,183,98,113,187,61,44,2,3,148,70,159,72,104,188,132,59,163,206,10,57,226,64,167,172,119,201,221,47,225,84,62,78,130,158,9,68,143,107,40,116,156,174,138,1,140,162,16,110,97,43,157,133,169,50,215,11,100,66,219,128,202,105,92,53,175,18,56,99,41,77,190,121,180,54,216,214,108,205,91,192,90,171,186,150,228,129,4,170,142,33,217,52,146,212,103,224,109,153,12,88,21,136,199,229,5,151,26,81,46,79,227,220,14,96,203,65,93,168,131,178,208,164,189,210,139,160,8,17,176,30,118,179,35,94,87,63,67,31,76,58,60,48,42,117,36,22,85,75,55,89,7,71,32,28,102,74,20,223,86,207,200,115,230,204,37,155,112,161,149,25,122,73,23,173,125,111,194,181,209,135,127,137,198,182